c User generated cnf file
p cnf 7 17
3 -1 2 0 
6 1 -1 0 
2 1 -5 0 
3 1 -2 0 
1 -4 6 0 
7 -1 2 0 
1 7 -4 0 
6 -1 2 0 
4 6 -4 0 
2 -1 7 0 
1 -4 3 0 
6 4 -7 0 
1 -5 5 0 
7 7 -4 0 
3 -7 7 0 
3 -2 6 0 
3 2 -5 0 
